ilp_joint/output/reflection_ilp.lp
Maximize
  0.00777124035010397 Z_467_0_0 + 0.00908609652718881 Z_467_0_1
   + 0.5939918613374567 Z_467_0_2 + 0.0129235559825763 Z_467_0_3
Subject To
 constraint1_4670: Z_467_0_0 + Z_467_0_1 + Z_467_0_2 + Z_467_0_3 <= 1
 constraint2_4670: Z_467_0_0 <= 1
 constraint2_4671: Z_467_0_1 <= 1
 constraint2_4672: Z_467_0_2 <= 1
 constraint2_4673: Z_467_0_3 <= 1
Bounds
Binaries
 Z_467_0_0 Z_467_0_1 Z_467_0_2 Z_467_0_3
End
