ilp_joint/output/reflection_ilp.mps
NAME reflection_srl_ilp
* Max problem is converted into Min one
ROWS
 N  OBJ
 L  constraint1_4670
 L  constraint2_4670
 L  constraint2_4671
 L  constraint2_4672
 L  constraint2_4673
COLUMNS
    MARKER    'MARKER'                 'INTORG'
    Z_467_0_0  OBJ       -7.7712403501039697e-03
    Z_467_0_0  constraint1_4670  1
    Z_467_0_0  constraint2_4670  1
    Z_467_0_1  OBJ       -9.0860965271888135e-03
    Z_467_0_1  constraint1_4670  1
    Z_467_0_1  constraint2_4671  1
    Z_467_0_2  OBJ       -5.9399186133745674e-01
    Z_467_0_2  constraint1_4670  1
    Z_467_0_2  constraint2_4672  1
    Z_467_0_3  OBJ       -1.2923555982576274e-02
    Z_467_0_3  constraint1_4670  1
    Z_467_0_3  constraint2_4673  1
    MARKER    'MARKER'                 'INTEND'
RHS
    RHS1      constraint1_4670  1
    RHS1      constraint2_4670  1
    RHS1      constraint2_4671  1
    RHS1      constraint2_4672  1
    RHS1      constraint2_4673  1
BOUNDS
 UP BND1      Z_467_0_0  1
 UP BND1      Z_467_0_1  1
 UP BND1      Z_467_0_2  1
 UP BND1      Z_467_0_3  1
ENDATA
