ilp_joint/output/reflection_ilp.sol
# Solution for model reflection_srl_ilp
# Objective value = 3.8999384572792923e+00
Z_725_0_0 0
Z_725_0_1 0
Z_725_0_2 0
Z_725_0_3 0
Z_725_0_4 1
Z_532_1_0 0
Z_532_1_1 0
Z_532_1_2 0
Z_532_1_3 0
Z_532_1_4 1
Z_532_0_0 0
Z_532_0_1 0
Z_532_0_2 1
Z_532_0_3 0
Z_532_0_4 0
Z_532_2_0 0
Z_532_2_1 0
Z_532_2_2 0
Z_532_2_3 0
Z_532_2_4 1
Z_532_4_0 0
Z_532_4_1 0
Z_532_4_2 0
Z_532_4_3 0
Z_532_4_4 1
Z_532_5_0 0
Z_532_5_1 0
Z_532_5_2 0
Z_532_5_3 0
Z_532_5_4 1
Z_532_3_0 1
Z_532_3_1 0
Z_532_3_2 0
Z_532_3_3 0
Z_532_3_4 0
